data/lp_files/q3/29_2.lp
\ Model foo
\ LP format - for model browsing. Use MPS format to capture full model detail.
Minimize
  z
Subject To
 allocateEach[1]: x[1,1] + x[2,1] = 1
 allocateEach[2]: x[1,2] + x[2,2] = 1
 allocateEach[3]: x[1,3] + x[2,3] = 1
 allocateEach[4]: x[1,4] + x[2,4] = 1
 allocateEach[5]: x[1,5] + x[2,5] = 1
 allocateEach[6]: x[1,6] + x[2,6] = 1
 allocateEach[7]: x[1,7] + x[2,7] = 1
 allocateEach[8]: x[1,8] + x[2,8] = 1
 allocateEach[9]: x[1,9] + x[2,9] = 1
 allocateAllCash: cashProportion[1] + cashProportion[2] = 1
 findWorstP[1,2]: z + 0.0492287495897604 cashProportion[1]
   - 0.0492287495897604 cashProportion[2] + 0.224942566458812 x[1,1]
   + 0.2431572038070233 x[1,2] + 0.00823761076468658 x[1,3]
   + 0.0962914341975714 x[1,4] + 0.0129963898916968 x[1,5]
   + 0.098490318345914 x[1,6] + 0.1001640958319659 x[1,7]
   + 0.0812274368231047 x[1,8] + 0.0852641942894651 x[1,9]
   - 0.224942566458812 x[2,1] - 0.2431572038070233 x[2,2]
   - 0.00823761076468658 x[2,3] - 0.0962914341975714 x[2,4]
   - 0.0129963898916968 x[2,5] - 0.098490318345914 x[2,6]
   - 0.1001640958319659 x[2,7] - 0.0812274368231047 x[2,8]
   - 0.0852641942894651 x[2,9] >= 0
 findWorstP[2,1]: z - 0.0338646317785705 cashProportion[1]
   + 0.0338646317785705 cashProportion[2] - 0.2124215469363796 x[1,1]
   - 0.1169910145843681 x[1,2] - 0.1618729399015668 x[1,3]
   - 0.1061543324152255 x[1,4] - 0.1942475278818801 x[1,5]
   - 0.0469138032239129 x[1,6] - 0.0828780421727548 x[1,7]
   - 0.0219894342348851 x[1,8] - 0.0226667268704565 x[1,9]
   + 0.2124215469363796 x[2,1] + 0.1169910145843681 x[2,2]
   + 0.1618729399015668 x[2,3] + 0.1061543324152255 x[2,4]
   + 0.1942475278818801 x[2,5] + 0.0469138032239129 x[2,6]
   + 0.0828780421727548 x[2,7] + 0.0219894342348851 x[2,8]
   + 0.0226667268704565 x[2,9] >= 0
Bounds
 z <= 1
 -infinity <= cashProportion[1] <= 1
 -infinity <= cashProportion[2] <= 1
Binaries
 x[1,1] x[1,2] x[1,3] x[1,4] x[1,5] x[1,6] x[1,7] x[1,8] x[1,9] x[2,1]
 x[2,2] x[2,3] x[2,4] x[2,5] x[2,6] x[2,7] x[2,8] x[2,9]
End
